p cnf 7230 18
1642 4000 4024 4056 4122 4661 0
-4032 -4068 4664 -4667 0
1644 4010 4030 4066 4130 -4662 0
4032 -4665 0
-1644 -4663 0
4068 -4665 0
-4010 -4663 0
-4030 -4663 0
-4665 4667 0
-4666 -4667 0
-4066 -4663 0
-4664 4665 0
4662 4663 0
-4130 -4663 0
-4660 -4661 0
-3982 4667 0
4660 4661 0
3982 -4667 0
